data/solutions/recovery/wellformed/intermediate/binding/wellformed_intermediate_instance84/27.sol
Elapsed time: 5.27
Upper bound: 157189.0
Planning weighted value: 8314943857.0
C[0]=157189.0
C[1]=157178.0
C[2]=157174.0
C[3]=157157.0
C[4]=157095.0
C[5]=157084.0
C[6]=157074.0
C[7]=156780.0
C[8]=156604.0
C[9]=156597.0
C[10]=156553.0
C[11]=156440.0
C[12]=156108.0
C[13]=155885.0
C[14]=0.0
C[15]=0.0
y[0]=13
y[1]=3
y[2]=2
y[3]=9
y[4]=0
y[5]=8
y[6]=10
y[7]=10
y[8]=5
y[9]=8
y[10]=6
y[11]=1
y[12]=11
y[13]=11
y[14]=1
y[15]=6
y[16]=8
y[17]=6
y[18]=11
y[19]=7
y[20]=11
y[21]=6
y[22]=3
y[23]=13
y[24]=2
y[25]=10
y[26]=7
y[27]=2
y[28]=10
y[29]=8
y[30]=2
y[31]=5
y[32]=1
y[33]=11
y[34]=6
y[35]=1
y[36]=13
y[37]=0
y[38]=7
y[39]=10
y[40]=13
y[41]=9
y[42]=0
y[43]=13
y[44]=2
y[45]=6
y[46]=5
y[47]=12
y[48]=13
y[49]=0
y[50]=5
y[51]=12
y[52]=10
y[53]=7
y[54]=10
y[55]=13
y[56]=11
y[57]=6
y[58]=6
y[59]=6
y[60]=6
y[61]=6
y[62]=2
y[63]=7
y[64]=6
y[65]=2
y[66]=9
y[67]=3
y[68]=9
y[69]=0
y[70]=3
y[71]=6
y[72]=7
y[73]=7
y[74]=6
y[75]=4
y[76]=13
y[77]=11
y[78]=5
y[79]=0
y[80]=8
y[81]=6
y[82]=5
y[83]=6
y[84]=10
y[85]=4
y[86]=2
y[87]=12
y[88]=4
y[89]=4
y[90]=8
y[91]=13
y[92]=12
y[93]=12
y[94]=7
y[95]=6
y[96]=11
y[97]=6
y[98]=13
y[99]=5
y[100]=8
y[101]=12
y[102]=11
y[103]=7
y[104]=12
y[105]=6
y[106]=0
y[107]=3
y[108]=1
y[109]=11
y[110]=6
y[111]=12
y[112]=3
y[113]=13
y[114]=9
y[115]=8
y[116]=0
y[117]=12
y[118]=2
y[119]=8
y[120]=2
y[121]=6
y[122]=3
y[123]=6
y[124]=8
y[125]=4
y[126]=5
y[127]=12
y[128]=7
y[129]=9
y[130]=6
y[131]=12
y[132]=13
y[133]=0
y[134]=5
y[135]=12
y[136]=1
y[137]=12
y[138]=2
y[139]=1
y[140]=13
y[141]=10
y[142]=13
y[143]=0
y[144]=2
y[145]=4
y[146]=3
y[147]=11
y[148]=9
y[149]=0
y[150]=13
y[151]=9
y[152]=0
y[153]=6
y[154]=1
y[155]=0
y[156]=0
y[157]=0
y[158]=0
y[159]=12
y[160]=13
y[161]=3
y[162]=3
y[163]=0
y[164]=0
y[165]=6
y[166]=12
y[167]=13
y[168]=13
y[169]=3
y[170]=13
y[171]=13
y[172]=1
y[173]=0
y[174]=11
y[175]=3
y[176]=11
y[177]=12
y[178]=10
y[179]=3
y[180]=9
y[181]=0
y[182]=0
y[183]=4
y[184]=4
y[185]=9
y[186]=13
y[187]=5
y[188]=10
y[189]=4
y[190]=2
y[191]=4
y[192]=1
y[193]=4
y[194]=6
y[195]=2
y[196]=12
y[197]=12
y[198]=6
y[199]=2
y[200]=3
y[201]=6
y[202]=1
y[203]=7
y[204]=12
y[205]=9
y[206]=5
y[207]=8
y[208]=10
y[209]=13
y[210]=4
y[211]=12
y[212]=7
y[213]=1
