data/solutions/recovery/wellformed/intermediate/binding/wellformed_intermediate_instance84/27.log

Log started (V12.6.3.0) Fri Apr 20 20:53:01 2018

New value for default parallel thread count: 1

Problem '/tmp/tmpgS1D3Z.pyomo.lp' read.
Read time = 0.08 sec. (7.92 ticks)

Problem name         : /tmp/tmpgS1D3Z.pyomo.lp
Objective sense      : Minimize
Variables            :    3442  [Nneg: 1,  Binary: 3424,  General Integer: 17]
Objective nonzeros   :       1
Linear constraints   :     463  [Less: 230,  Equal: 233]
  Nonzeros           :  584997
  RHS nonzeros       :     215

Variables            : Min LB: 0.000000         Max UB: 1.000000       
Objective nonzeros   : Min   : 1.000000         Max   : 1.000000       
Linear constraints   :
  Nonzeros           : Min   : 1.000000         Max   : 19973.00       
  RHS nonzeros       : Min   : 1.000000         Max   : 1.000000       
Tried aggregator 2 times.
MIP Presolve eliminated 404 rows and 2993 columns.
Aggregator did 14 substitutions.
Reduced MIP has 45 rows, 435 columns, and 882 nonzeros.
Reduced MIP has 434 binaries, 1 generals, 0 SOSs, and 0 indicators.
Presolve time = 0.02 sec. (36.99 ticks)
Found incumbent of value 546870.000000 after 0.05 sec. (50.73 ticks)
Probing time = 0.00 sec. (0.52 ticks)
Tried aggregator 1 time.
Reduced MIP has 45 rows, 435 columns, and 882 nonzeros.
Reduced MIP has 434 binaries, 1 generals, 0 SOSs, and 0 indicators.
Presolve time = 0.00 sec. (0.75 ticks)
Probing time = 0.00 sec. (0.52 ticks)
Clique table members: 31.
MIP emphasis: balance optimality and feasibility.
MIP search method: dynamic search.
Parallel mode: none, using 1 thread.
Root relaxation solution time = 0.00 sec. (0.81 ticks)

        Nodes                                         Cuts/
   Node  Left     Objective  IInf  Best Integer    Best Bound    ItCnt     Gap

*     0+    0                       546870.0000   153392.0000            71.95%
      0     0   156779.8571    25   546870.0000   156779.8571       81   71.33%
*     0+    0                       167041.0000   156779.8571             6.14%
      0     0   156780.0000    32   167041.0000      Cuts: 14      125    6.14%
*     0+    0                       163991.0000   156780.0000             4.40%
      0     0   156836.0342    31   163991.0000      Cuts: 25      202    4.36%
*     0+    0                       162921.0000   156836.0342             3.73%
      0     0   156844.1123    40   162921.0000      Cuts: 16      242    3.73%
      0     0   156844.1123    49   162921.0000      Cuts: 26      326    3.73%
*     0+    0                       161294.0000   156844.1123             2.76%
*     0+    0                       160907.0000   156844.1123             2.52%
*     0+    0                       160781.0000   156844.1123             2.45%
      0     2   156844.1123    22   160781.0000   156844.1123      326    2.45%
Elapsed time = 0.07 sec. (80.72 ticks, tree = 0.01 MB, solutions = 7)
*    30+   30                       160494.0000   156844.1123             2.27%
*    40+   40                       160244.0000   156844.1123             2.12%
*    67    60      integral     0   159432.0000   156844.1123      679    1.62%
*    70+   45                       159059.0000   156844.1123             1.39%
*   110+   81                       158913.0000   156844.1123             1.30%
*   140+  111                       158861.0000   156844.1123             1.27%
*   150+  121                       158823.0000   156844.1123             1.25%
*   178   148      integral     0   158653.0000   156844.1123     1294    1.14%
*   180+  146                       158610.0000   156844.1123             1.11%
*   230+  188                       158326.0000   156844.1123             0.94%
*   260+  213                       158119.0000   156844.1123             0.81%
*   360+  239                       157902.0000   156844.1123             0.67%
*   360+  238                       157826.0000   156844.1123             0.62%
*   360+  236                       157754.0000   156844.1123             0.58%
*   360+  236                       157708.0000   156844.1123             0.55%
*   506+  246                       157689.0000   156849.0000             0.53%
    514   251   156851.9573    47   157689.0000   156851.0000     4368    0.53%
    515   251   156862.0000    50   157689.0000   156851.0000     4496    0.53%
    516   252   156862.0000    43   157689.0000   156851.0000     4498    0.53%
    517   252   156862.0000    42   157689.0000   156851.0000     4499    0.53%
    518   253   156863.6336    51   157689.0000   156851.0000     4550    0.53%
    519   252   156868.4185    34   157689.0000   156851.0000     4564    0.53%
    520   252   156869.0000    33   157689.0000   156851.0000     4565    0.53%
    521   251   156870.5538    32   157689.0000   156851.0000     4569    0.53%
    522   252   157609.0000    14   157689.0000   156851.0000     4596    0.53%
*   606+  193                       157594.0000   156851.0000             0.47%
*   606+  139                       157447.0000   156851.0000             0.38%
*   606+  111                       157419.0000   156851.0000             0.36%
*   706+   97                       157253.0000   156851.0000             0.26%
*   906+  218                       157225.0000   156855.6645             0.23%
*  1006+  296                       157221.0000   156855.6645             0.23%
*  1206+  442                       157189.0000   156857.0000             0.21%
   1512   695   156905.6796    27   157189.0000   156857.0000    12588    0.21%
Elapsed time = 0.90 sec. (1034.46 ticks, tree = 0.24 MB, solutions = 32)
   6818  5078   157160.6457    36   157189.0000   156865.4354    39115    0.21%
   6819  5078   157161.5089    34   157189.0000   156865.4354    39116    0.21%
   6820  5079   157161.6979    34   157189.0000   156865.4354    39117    0.21%
   6821  5078        cutoff         157189.0000   156865.4354    39121    0.21%
   6822  5077        cutoff         157189.0000   156865.4354    39123    0.21%
   6823  5076        cutoff         157189.0000   156865.5037    39139    0.21%
   6824  5075        cutoff         157189.0000   156865.5103    39154    0.21%
   6825  5076   156970.7261    40   157189.0000   156865.5517    39197    0.21%
   6826  5077   156984.0963    34   157189.0000   156865.5517    39208    0.21%
   6827  5078   156984.6832    37   157189.0000   156865.5517    39214    0.21%
Elapsed time = 1.73 sec. (1992.75 ticks, tree = 3.39 MB, solutions = 32)
  10632  7919   156946.2922    48   157189.0000   156869.5421    63650    0.20%
  10633  7920   156946.3212    49   157189.0000   156869.5421    63651    0.20%
  10634  7921   156950.0568    45   157189.0000   156869.5421    63653    0.20%
  10635  7922   156950.1166    43   157189.0000   156869.5421    63654    0.20%
  10636  7923   156952.2026    41   157189.0000   156869.5421    63662    0.20%
  10637  7924   156952.8177    43   157189.0000   156869.5421    63671    0.20%
  10638  7925   156953.2362    42   157189.0000   156869.5421    63673    0.20%
  10639  7926   156953.3445    41   157189.0000   156869.5421    63676    0.20%
  10640  7927   156953.3445    41   157189.0000   156869.5421    63677    0.20%
  10641  7928   156953.3626    43   157189.0000   156869.5421    63678    0.20%
Elapsed time = 2.58 sec. (2947.85 ticks, tree = 4.19 MB, solutions = 32)
  13185  9082   157164.4167    45   157189.0000   156878.5687    97858    0.20%
  13186  9083   157164.4167    41   157189.0000   156878.5687    97860    0.20%
  13187  9084   157164.4167    42   157189.0000   156878.5687    97870    0.20%
  13188  9085   157164.4167    38   157189.0000   156878.5687    97873    0.20%
  13189  9086   157164.4167    35   157189.0000   156878.5687    97882    0.20%
  13190  9087   157164.4167    34   157189.0000   156878.5687    97892    0.20%
  13191  9088   157164.4167    32   157189.0000   156878.5687    97893    0.20%
  13192  9089   157164.4167    33   157189.0000   156878.5687    97898    0.20%
  13193  9090   157164.4167    35   157189.0000   156878.5687    97920    0.20%
  13194  9091   157164.4167    33   157189.0000   156878.5687    97921    0.20%
Elapsed time = 3.34 sec. (3904.29 ticks, tree = 4.63 MB, solutions = 32)
  15685  8812        cutoff         157189.0000   156891.7608   138591    0.19%
  15686  8811        cutoff         157189.0000   156891.7619   138619    0.19%
  15687  8810    infeasible         157189.0000   156891.8285   138619    0.19%
  15688  8809        cutoff         157189.0000   156891.8285   138688    0.19%
  15689  8808        cutoff         157189.0000   156891.8285   138703    0.19%
  15690  8807    infeasible         157189.0000   156891.8285   138703    0.19%
  15691  8806    infeasible         157189.0000   156891.8856   138703    0.19%
  15692  8805    infeasible         157189.0000   156891.8856   138703    0.19%
  15693  8804    infeasible         157189.0000   156891.9284   138703    0.19%
  15694  8803    infeasible         157189.0000   156891.9284   138703    0.19%
Elapsed time = 4.04 sec. (4860.55 ticks, tree = 4.19 MB, solutions = 32)
  19813  5512    infeasible         157189.0000   156994.5956   188335    0.12%
  19814  5511    infeasible         157189.0000   156994.7091   188335    0.12%
  19815  5510    infeasible         157189.0000   156994.7466   188335    0.12%
  19816  5509    infeasible         157189.0000   156994.7565   188335    0.12%
  19817  5508    infeasible         157189.0000   156994.8005   188335    0.12%
  19818  5507        cutoff         157189.0000   156994.9059   188344    0.12%
  19819  5506    infeasible         157189.0000   156994.9081   188344    0.12%
  19820  5505    infeasible         157189.0000   156994.9311   188344    0.12%
  19821  5504    infeasible         157189.0000   156994.9659   188344    0.12%
  19822  5503        cutoff         157189.0000   156994.9770   188351    0.12%
Elapsed time = 4.75 sec. (5815.01 ticks, tree = 2.87 MB, solutions = 32)

Clique cuts applied:  1
Cover cuts applied:  54
Mixed integer rounding cuts applied:  49
Zero-half cuts applied:  4
Gomory fractional cuts applied:  3

Root node processing (before b&c):
  Real time             =    0.07 sec. (81.49 ticks)
Sequential b&c:
  Real time             =    5.08 sec. (6248.01 ticks)
                          ------------
Total (root+branch&cut) =    5.15 sec. (6329.50 ticks)

Solution pool: 32 solutions saved.

MIP - Integer optimal, tolerance (0.0001/1e-06):  Objective =  1.5718900000e+05
Current MIP best bound =  1.5717332693e+05 (gap = 15.6731, 0.01%)
Solution time =    5.15 sec.  Iterations = 212718  Nodes = 25199 (545)
Deterministic time = 6329.51 ticks  (1228.26 ticks/sec)


Incumbent solution written to file '/tmp/tmp7t6mgo.cplex.sol'.
